NAME          ClpDefau
ROWS
 N  OBJROW
 L  R_284_0
 L  R_284_1
 L  R_284_2
 L  R_284_3
 L  R_284_4
 L  R_284_5
 L  R_284_6
 L  R_284_7
 L  R_284_8
 L  R_284_9
 L  R_284_10
 L  R_284_11
 L  R_284_12
 L  R_284_13
 L  R_284_14
 L  R_284_15
 L  R_284_16
 L  R_284_17
 L  R_284_18
 L  R_284_19
 L  R_284_20
 L  R_284_21
 L  R_284_22
 L  R_284_23
 L  R_284_24
 L  R_284_25
 L  R_284_26
 L  R_284_27
 L  R_284_28
 L  R_284_29
 L  R_284_30
 L  R_284_31
COLUMNS
    x_0       OBJROW     -1.           R_284_0   1.          
    x_0       R_284_1   3.             R_284_2   9.          
    x_0       R_284_3   9.             R_284_4   3.          
    x_0       R_284_6   7.             R_284_7   6.          
    x_0       R_284_8   6.             R_284_9   8.          
    x_0       R_284_10  7.             R_284_11  8.          
    x_0       R_284_12  4.             R_284_13  8.          
    x_0       R_284_14  6.             R_284_15  8.          
    x_0       R_284_17  10.            R_284_18  9.          
    x_0       R_284_19  8.             R_284_20  6.          
    x_0       R_284_24  8.             R_284_25  9.          
    x_0       R_284_26  9.             R_284_27  10.         
    x_0       R_284_28  4.             R_284_29  6.          
    x_0       R_284_31  2.          
    x_1       OBJROW     -2.           R_284_0   6.          
    x_1       R_284_1   4.             R_284_3   10.         
    x_1       R_284_4   5.             R_284_5   2.          
    x_1       R_284_6   3.             R_284_8   4.          
    x_1       R_284_10  1.             R_284_11  6.          
    x_1       R_284_12  1.             R_284_13  2.          
    x_1       R_284_14  1.             R_284_15  3.          
    x_1       R_284_17  3.             R_284_18  1.          
    x_1       R_284_19  1.             R_284_20  4.          
    x_1       R_284_21  1.             R_284_22  10.         
    x_1       R_284_23  2.             R_284_24  8.          
    x_1       R_284_25  8.             R_284_26  10.         
    x_1       R_284_27  5.             R_284_28  10.         
    x_1       R_284_29  8.             R_284_31  6.          
    x_2       OBJROW     -2.           R_284_1   3.          
    x_2       R_284_2   7.             R_284_3   6.          
    x_2       R_284_4   6.             R_284_5   10.         
    x_2       R_284_7   9.             R_284_9   5.          
    x_2       R_284_10  3.             R_284_11  8.          
    x_2       R_284_12  9.             R_284_14  1.          
    x_2       R_284_16  8.             R_284_17  2.          
    x_2       R_284_18  10.            R_284_19  10.         
    x_2       R_284_20  5.             R_284_21  5.          
    x_2       R_284_22  1.             R_284_23  7.          
    x_2       R_284_24  2.             R_284_25  2.          
    x_2       R_284_26  2.             R_284_27  4.          
    x_2       R_284_28  1.             R_284_29  8.          
    x_2       R_284_30  9.             R_284_31  4.          
    x_3       OBJROW     -6.           R_284_0   4.          
    x_3       R_284_1   7.             R_284_2   1.          
    x_3       R_284_3   1.             R_284_6   2.          
    x_3       R_284_7   8.             R_284_8   9.          
    x_3       R_284_10  6.             R_284_11  6.          
    x_3       R_284_12  7.             R_284_13  5.          
    x_3       R_284_14  1.             R_284_16  8.          
    x_3       R_284_17  10.            R_284_18  1.          
    x_3       R_284_19  6.             R_284_20  2.          
    x_3       R_284_21  8.             R_284_22  10.         
    x_3       R_284_23  8.             R_284_24  6.          
    x_3       R_284_25  2.             R_284_26  2.          
    x_3       R_284_27  6.             R_284_28  4.          
    x_3       R_284_29  1.             R_284_30  8.          
    x_3       R_284_31  8.          
    x_4       OBJROW     -3.           R_284_0   8.          
    x_4       R_284_1   6.             R_284_2   9.          
    x_4       R_284_4   7.             R_284_7   4.          
    x_4       R_284_8   10.            R_284_9   7.          
    x_4       R_284_10  2.             R_284_11  10.         
    x_4       R_284_12  6.             R_284_13  9.          
    x_4       R_284_14  7.             R_284_16  1.          
    x_4       R_284_17  5.             R_284_18  6.          
    x_4       R_284_19  9.             R_284_20  3.          
    x_4       R_284_21  7.             R_284_22  9.          
    x_4       R_284_23  9.             R_284_24  3.          
    x_4       R_284_25  4.             R_284_26  6.          
    x_4       R_284_27  10.            R_284_28  8.          
    x_4       R_284_29  1.             R_284_31  3.          
    x_5       OBJROW     -5.           R_284_0   1.          
    x_5       R_284_1   7.             R_284_2   7.          
    x_5       R_284_3   8.             R_284_4   9.          
    x_5       R_284_5   2.             R_284_6   4.          
    x_5       R_284_7   4.             R_284_8   7.          
    x_5       R_284_10  1.             R_284_11  9.          
    x_5       R_284_12  8.             R_284_13  2.          
    x_5       R_284_14  4.             R_284_15  10.         
    x_5       R_284_16  4.             R_284_18  9.          
    x_5       R_284_19  4.             R_284_20  10.         
    x_5       R_284_21  8.             R_284_23  10.         
    x_5       R_284_24  8.             R_284_25  10.         
    x_5       R_284_26  4.             R_284_28  6.          
    x_5       R_284_29  8.             R_284_30  2.          
    x_5       R_284_31  8.          
    x_6       OBJROW     -5.           R_284_2   9.          
    x_6       R_284_3   2.             R_284_4   6.          
    x_6       R_284_5   7.             R_284_6   3.          
    x_6       R_284_7   8.             R_284_8   8.          
    x_6       R_284_9   3.             R_284_10  9.          
    x_6       R_284_11  1.             R_284_12  9.          
    x_6       R_284_14  4.             R_284_16  3.          
    x_6       R_284_17  9.             R_284_18  5.          
    x_6       R_284_19  6.             R_284_20  5.          
    x_6       R_284_21  7.             R_284_22  2.          
    x_6       R_284_23  4.             R_284_24  9.          
    x_6       R_284_26  9.             R_284_27  5.          
    x_6       R_284_28  8.             R_284_29  9.          
    x_6       R_284_30  2.             R_284_31  7.          
    x_7       OBJROW     -10.          R_284_1   6.          
    x_7       R_284_2   8.             R_284_3   8.          
    x_7       R_284_4   5.             R_284_5   3.          
    x_7       R_284_7   4.             R_284_9   2.          
    x_7       R_284_11  6.             R_284_12  3.          
    x_7       R_284_13  4.             R_284_14  9.          
    x_7       R_284_15  7.             R_284_17  5.          
    x_7       R_284_20  6.             R_284_21  5.          
    x_7       R_284_22  2.             R_284_23  7.          
    x_7       R_284_24  5.             R_284_26  8.          
    x_7       R_284_27  3.             R_284_28  7.          
    x_7       R_284_29  1.             R_284_30  3.          
    x_7       R_284_31  7.          
    x_8       OBJROW     -4.           R_284_0   6.          
    x_8       R_284_1   10.            R_284_2   5.          
    x_8       R_284_3   3.             R_284_4   4.          
    x_8       R_284_6   3.             R_284_7   6.          
    x_8       R_284_8   7.             R_284_9   2.          
    x_8       R_284_10  4.             R_284_11  10.         
    x_8       R_284_12  6.             R_284_13  10.         
    x_8       R_284_14  3.             R_284_15  2.          
    x_8       R_284_16  5.             R_284_17  9.          
    x_8       R_284_18  2.             R_284_19  10.         
    x_8       R_284_21  1.             R_284_22  8.          
    x_8       R_284_23  6.             R_284_24  10.         
    x_8       R_284_25  10.            R_284_26  8.          
    x_8       R_284_29  7.             R_284_30  8.          
    x_8       R_284_31  2.          
    x_9       OBJROW     -10.          R_284_0   10.         
    x_9       R_284_1   9.             R_284_3   5.          
    x_9       R_284_4   1.             R_284_5   6.          
    x_9       R_284_6   1.             R_284_7   2.          
    x_9       R_284_8   8.             R_284_9   8.          
    x_9       R_284_10  8.             R_284_11  1.          
    x_9       R_284_12  9.             R_284_13  1.          
    x_9       R_284_14  1.             R_284_16  9.          
    x_9       R_284_18  8.             R_284_19  9.          
    x_9       R_284_20  2.             R_284_21  1.          
    x_9       R_284_22  7.             R_284_23  7.          
    x_9       R_284_25  9.             R_284_26  3.          
    x_9       R_284_27  3.             R_284_28  4.          
    x_9       R_284_29  4.             R_284_30  7.          
    x_9       R_284_31  3.          
    x_10      OBJROW     -1.           R_284_0   5.          
    x_10      R_284_2   8.             R_284_3   9.          
    x_10      R_284_4   5.             R_284_5   3.          
    x_10      R_284_6   2.             R_284_7   9.          
    x_10      R_284_8   4.             R_284_9   10.         
    x_10      R_284_10  3.             R_284_11  5.          
    x_10      R_284_12  8.             R_284_13  4.          
    x_10      R_284_15  1.             R_284_16  2.          
    x_10      R_284_17  9.             R_284_19  2.          
    x_10      R_284_22  5.             R_284_24  6.          
    x_10      R_284_25  5.             R_284_27  2.          
    x_10      R_284_28  7.             R_284_29  1.          
    x_10      R_284_30  2.             R_284_31  5.          
    x_11      OBJROW     -10.          R_284_1   7.          
    x_11      R_284_2   9.             R_284_3   10.         
    x_11      R_284_4   4.             R_284_5   3.          
    x_11      R_284_6   8.             R_284_9   10.         
    x_11      R_284_10  4.             R_284_11  8.          
    x_11      R_284_12  8.             R_284_14  2.          
    x_11      R_284_15  10.            R_284_16  8.          
    x_11      R_284_17  10.            R_284_18  10.         
    x_11      R_284_20  5.             R_284_22  5.          
    x_11      R_284_23  1.             R_284_24  6.          
    x_11      R_284_25  9.             R_284_26  6.          
    x_11      R_284_28  8.             R_284_30  10.         
    x_11      R_284_31  4.          
    x_12      OBJROW     -3.           R_284_0   10.         
    x_12      R_284_1   2.             R_284_2   8.          
    x_12      R_284_4   8.             R_284_5   4.          
    x_12      R_284_6   5.             R_284_9   10.         
    x_12      R_284_10  6.             R_284_11  7.          
    x_12      R_284_12  4.             R_284_13  9.          
    x_12      R_284_14  4.             R_284_15  10.         
    x_12      R_284_16  7.             R_284_17  8.          
    x_12      R_284_18  8.             R_284_20  4.          
    x_12      R_284_21  9.             R_284_22  2.          
    x_12      R_284_23  9.             R_284_24  1.          
    x_12      R_284_25  7.             R_284_26  9.          
    x_12      R_284_27  6.             R_284_28  9.          
    x_12      R_284_30  2.             R_284_31  4.          
    x_13      OBJROW     -7.           R_284_0   1.          
    x_13      R_284_1   3.             R_284_2   4.          
    x_13      R_284_3   9.             R_284_4   3.          
    x_13      R_284_5   2.             R_284_6   9.          
    x_13      R_284_7   3.             R_284_8   3.          
    x_13      R_284_9   9.             R_284_10  8.          
    x_13      R_284_11  9.             R_284_12  6.          
    x_13      R_284_13  2.             R_284_14  2.          
    x_13      R_284_15  6.             R_284_16  5.          
    x_13      R_284_19  3.             R_284_20  6.          
    x_13      R_284_21  1.             R_284_22  9.          
    x_13      R_284_23  2.             R_284_24  9.          
    x_13      R_284_25  7.             R_284_26  4.          
    x_13      R_284_27  3.             R_284_28  1.          
    x_13      R_284_29  6.             R_284_30  5.          
    x_13      R_284_31  1.          
    x_14      OBJROW     -7.           R_284_1   4.          
    x_14      R_284_2   6.             R_284_3   10.         
    x_14      R_284_5   9.             R_284_6   1.          
    x_14      R_284_7   2.             R_284_8   5.          
    x_14      R_284_9   4.             R_284_10  9.          
    x_14      R_284_13  3.             R_284_14  3.          
    x_14      R_284_15  6.             R_284_16  10.         
    x_14      R_284_17  8.             R_284_19  8.          
    x_14      R_284_20  10.            R_284_23  5.          
    x_14      R_284_24  3.             R_284_25  10.         
    x_14      R_284_26  8.             R_284_27  4.          
    x_14      R_284_28  5.             R_284_29  6.          
    x_14      R_284_30  1.          
    x_15      OBJROW     -9.           R_284_0   1.          
    x_15      R_284_1   1.             R_284_3   10.         
    x_15      R_284_4   5.             R_284_5   8.          
    x_15      R_284_6   10.            R_284_7   4.          
    x_15      R_284_8   9.             R_284_9   5.          
    x_15      R_284_11  7.             R_284_12  4.          
    x_15      R_284_13  7.             R_284_14  10.         
    x_15      R_284_15  9.             R_284_16  7.          
    x_15      R_284_17  6.             R_284_19  3.          
    x_15      R_284_20  3.             R_284_21  8.          
    x_15      R_284_22  3.             R_284_23  6.          
    x_15      R_284_24  7.             R_284_25  5.          
    x_15      R_284_26  1.             R_284_27  1.          
    x_15      R_284_28  2.             R_284_29  6.          
    x_15      R_284_30  6.             R_284_31  3.          
    x_16      OBJROW     -6.           R_284_0   6.          
    x_16      R_284_1   9.             R_284_2   7.          
    x_16      R_284_3   4.             R_284_4   2.          
    x_16      R_284_5   6.             R_284_6   8.          
    x_16      R_284_7   1.             R_284_8   7.          
    x_16      R_284_9   10.            R_284_12  10.         
    x_16      R_284_13  10.            R_284_14  6.          
    x_16      R_284_15  7.             R_284_16  8.          
    x_16      R_284_17  5.             R_284_18  4.          
    x_16      R_284_19  4.             R_284_20  6.          
    x_16      R_284_22  4.             R_284_23  10.         
    x_16      R_284_24  10.            R_284_25  7.          
    x_16      R_284_27  9.             R_284_29  8.          
    x_16      R_284_30  3.             R_284_31  10.         
    x_17      OBJROW     -9.           R_284_2   3.          
    x_17      R_284_5   10.            R_284_6   4.          
    x_17      R_284_7   5.             R_284_8   1.          
    x_17      R_284_9   2.             R_284_10  10.         
    x_17      R_284_11  7.             R_284_12  8.          
    x_17      R_284_13  8.             R_284_15  5.          
    x_17      R_284_16  8.             R_284_17  9.          
    x_17      R_284_18  5.             R_284_19  1.          
    x_17      R_284_20  9.             R_284_21  7.          
    x_17      R_284_23  5.             R_284_24  4.          
    x_17      R_284_26  8.             R_284_27  3.          
    x_17      R_284_30  5.          
    x_18      OBJROW     -8.           R_284_0   4.          
    x_18      R_284_1   4.             R_284_2   2.          
    x_18      R_284_3   6.             R_284_4   9.          
    x_18      R_284_8   3.             R_284_9   7.          
    x_18      R_284_10  4.             R_284_11  1.          
    x_18      R_284_12  6.             R_284_13  2.          
    x_18      R_284_15  3.             R_284_17  7.          
    x_18      R_284_18  8.             R_284_19  5.          
    x_18      R_284_20  3.             R_284_22  2.          
    x_18      R_284_24  3.             R_284_26  9.          
    x_18      R_284_27  4.             R_284_28  4.          
    x_19      OBJROW     -9.           R_284_0   4.          
    x_19      R_284_1   1.             R_284_3   8.          
    x_19      R_284_4   6.             R_284_6   2.          
    x_19      R_284_7   1.             R_284_8   7.          
    x_19      R_284_9   4.             R_284_10  10.         
    x_19      R_284_11  2.             R_284_12  10.         
    x_19      R_284_13  3.             R_284_14  10.         
    x_19      R_284_15  2.             R_284_16  6.          
    x_19      R_284_17  4.             R_284_18  8.          
    x_19      R_284_19  8.             R_284_20  4.          
    x_19      R_284_21  2.             R_284_22  10.         
    x_19      R_284_23  5.             R_284_24  4.          
    x_19      R_284_25  4.             R_284_26  3.          
    x_19      R_284_30  3.          
    x_20      OBJROW     -5.           R_284_0   7.          
    x_20      R_284_1   2.             R_284_2   2.          
    x_20      R_284_4   1.             R_284_5   7.          
    x_20      R_284_8   5.             R_284_10  9.          
    x_20      R_284_12  10.            R_284_13  8.          
    x_20      R_284_15  5.             R_284_17  7.          
    x_20      R_284_18  10.            R_284_19  7.          
    x_20      R_284_20  6.             R_284_21  10.         
    x_20      R_284_22  7.             R_284_24  2.          
    x_20      R_284_27  9.             R_284_28  3.          
    x_20      R_284_30  2.             R_284_31  4.          
    x_21      OBJROW     -1.           R_284_0   9.          
    x_21      R_284_2   3.             R_284_4   8.          
    x_21      R_284_5   9.             R_284_6   6.          
    x_21      R_284_7   4.             R_284_9   7.          
    x_21      R_284_10  7.             R_284_11  5.          
    x_21      R_284_12  3.             R_284_13  4.          
    x_21      R_284_16  4.             R_284_17  5.          
    x_21      R_284_18  10.            R_284_19  1.          
    x_21      R_284_20  7.             R_284_21  1.          
    x_21      R_284_22  8.             R_284_23  6.          
    x_21      R_284_25  1.             R_284_26  3.          
    x_21      R_284_27  4.             R_284_28  8.          
    x_21      R_284_29  9.             R_284_31  6.          
    x_22      OBJROW     -1.           R_284_0   4.          
    x_22      R_284_1   8.             R_284_2   5.          
    x_22      R_284_3   3.             R_284_4   1.          
    x_22      R_284_5   2.             R_284_7   1.          
    x_22      R_284_8   4.             R_284_10  9.          
    x_22      R_284_11  10.            R_284_12  6.          
    x_22      R_284_13  1.             R_284_14  1.          
    x_22      R_284_15  9.             R_284_16  1.          
    x_22      R_284_17  2.             R_284_18  10.         
    x_22      R_284_19  6.             R_284_21  3.          
    x_22      R_284_22  4.             R_284_23  3.          
    x_22      R_284_25  9.             R_284_27  2.          
    x_22      R_284_28  4.             R_284_29  4.          
    x_22      R_284_30  3.             R_284_31  1.          
    x_23      OBJROW     -6.           R_284_0   2.          
    x_23      R_284_1   4.             R_284_2   2.          
    x_23      R_284_4   3.             R_284_5   4.          
    x_23      R_284_7   3.             R_284_8   7.          
    x_23      R_284_9   2.             R_284_10  10.         
    x_23      R_284_11  6.             R_284_12  5.          
    x_23      R_284_14  5.             R_284_17  3.          
    x_23      R_284_18  6.             R_284_19  10.         
    x_23      R_284_20  10.            R_284_21  2.          
    x_23      R_284_23  10.            R_284_24  10.         
    x_23      R_284_25  2.             R_284_26  10.         
    x_23      R_284_27  1.             R_284_28  4.          
    x_23      R_284_29  9.             R_284_30  7.          
    x_24      OBJROW     -8.           R_284_0   6.          
    x_24      R_284_1   3.             R_284_2   5.          
    x_24      R_284_3   6.             R_284_5   1.          
    x_24      R_284_6   4.             R_284_7   8.          
    x_24      R_284_9   4.             R_284_10  2.          
    x_24      R_284_11  2.             R_284_12  7.          
    x_24      R_284_13  10.            R_284_14  9.          
    x_24      R_284_16  1.             R_284_17  4.          
    x_24      R_284_19  5.             R_284_20  9.          
    x_24      R_284_22  3.             R_284_23  5.          
    x_24      R_284_24  10.            R_284_25  1.          
    x_24      R_284_27  8.             R_284_28  10.         
    x_24      R_284_29  4.             R_284_31  2.          
    x_25      OBJROW     -6.           R_284_0   5.          
    x_25      R_284_1   2.             R_284_2   4.          
    x_25      R_284_3   5.             R_284_6   10.         
    x_25      R_284_7   6.             R_284_8   10.         
    x_25      R_284_10  8.             R_284_11  8.          
    x_25      R_284_12  6.             R_284_13  1.          
    x_25      R_284_14  7.             R_284_15  4.          
    x_25      R_284_17  1.             R_284_18  9.          
    x_25      R_284_20  8.             R_284_21  7.          
    x_25      R_284_23  3.             R_284_25  2.          
    x_25      R_284_26  5.             R_284_27  3.          
    x_25      R_284_28  7.             R_284_29  1.          
    x_25      R_284_30  3.             R_284_31  1.          
    x_26      OBJROW     -7.           R_284_0   4.          
    x_26      R_284_1   5.             R_284_2   3.          
    x_26      R_284_3   6.             R_284_4   7.          
    x_26      R_284_6   3.             R_284_7   5.          
    x_26      R_284_8   4.             R_284_9   1.          
    x_26      R_284_12  8.             R_284_14  8.          
    x_26      R_284_17  7.             R_284_19  9.          
    x_26      R_284_20  7.             R_284_21  8.          
    x_26      R_284_22  3.             R_284_23  5.          
    x_26      R_284_24  3.             R_284_25  2.          
    x_26      R_284_26  1.             R_284_27  1.          
    x_26      R_284_28  10.            R_284_29  7.          
    x_26      R_284_30  10.            R_284_31  3.          
    x_27      OBJROW     -7.           R_284_0   4.          
    x_27      R_284_1   6.             R_284_2   1.          
    x_27      R_284_6   6.             R_284_7   8.          
    x_27      R_284_8   3.             R_284_9   10.         
    x_27      R_284_10  2.             R_284_11  9.          
    x_27      R_284_12  2.             R_284_13  5.          
    x_27      R_284_14  5.             R_284_15  4.          
    x_27      R_284_16  1.             R_284_17  1.          
    x_27      R_284_18  10.            R_284_20  7.          
    x_27      R_284_21  8.             R_284_23  1.          
    x_27      R_284_24  1.             R_284_26  6.          
    x_27      R_284_27  2.             R_284_29  5.          
    x_27      R_284_31  2.          
    x_28      OBJROW     -9.           R_284_0   5.          
    x_28      R_284_1   3.             R_284_2   8.          
    x_28      R_284_3   9.             R_284_4   10.         
    x_28      R_284_5   10.            R_284_7   7.          
    x_28      R_284_8   2.             R_284_10  2.          
    x_28      R_284_11  8.             R_284_12  10.         
    x_28      R_284_13  7.             R_284_14  10.         
    x_28      R_284_16  8.             R_284_17  8.          
    x_28      R_284_19  7.             R_284_21  2.          
    x_28      R_284_22  5.             R_284_23  5.          
    x_28      R_284_26  5.             R_284_27  4.          
    x_28      R_284_29  9.             R_284_30  7.          
    x_28      R_284_31  1.          
    x_29      OBJROW     -3.           R_284_0   5.          
    x_29      R_284_1   1.             R_284_2   6.          
    x_29      R_284_3   10.            R_284_4   6.          
    x_29      R_284_6   1.             R_284_7   4.          
    x_29      R_284_8   2.             R_284_9   3.          
    x_29      R_284_10  7.             R_284_12  7.          
    x_29      R_284_14  4.             R_284_15  3.          
    x_29      R_284_16  8.             R_284_17  5.          
    x_29      R_284_20  4.             R_284_21  8.          
    x_29      R_284_22  4.             R_284_23  7.          
    x_29      R_284_24  9.             R_284_25  5.          
    x_29      R_284_26  10.            R_284_28  1.          
    x_29      R_284_29  3.             R_284_31  5.          
    x_30      OBJROW     -9.           R_284_1   4.          
    x_30      R_284_2   2.             R_284_3   5.          
    x_30      R_284_4   6.             R_284_5   3.          
    x_30      R_284_7   5.             R_284_8   8.          
    x_30      R_284_9   9.             R_284_10  3.          
    x_30      R_284_11  1.             R_284_13  7.          
    x_30      R_284_14  4.             R_284_15  9.          
    x_30      R_284_16  8.             R_284_17  5.          
    x_30      R_284_18  7.             R_284_19  1.          
    x_30      R_284_20  6.             R_284_21  9.          
    x_30      R_284_23  4.             R_284_24  7.          
    x_30      R_284_25  4.             R_284_27  5.          
    x_30      R_284_28  4.             R_284_29  2.          
    x_30      R_284_30  9.             R_284_31  8.          
    x_31      OBJROW     -3.           R_284_0   9.          
    x_31      R_284_1   1.             R_284_2   6.          
    x_31      R_284_3   3.             R_284_4   5.          
    x_31      R_284_6   10.            R_284_8   9.          
    x_31      R_284_9   8.             R_284_12  3.          
    x_31      R_284_14  2.             R_284_15  6.          
    x_31      R_284_16  5.             R_284_17  5.          
    x_31      R_284_18  2.             R_284_19  7.          
    x_31      R_284_20  10.            R_284_21  8.          
    x_31      R_284_22  4.             R_284_23  9.          
    x_31      R_284_24  4.             R_284_25  8.          
    x_31      R_284_26  5.             R_284_28  9.          
    x_31      R_284_29  10.            R_284_31  9.          
RHS
    RHS       R_284_0   137.           R_284_1   149.        
    RHS       R_284_2   163.           R_284_3   143.        
    RHS       R_284_4   143.           R_284_5   142.        
    RHS       R_284_6   143.           R_284_7   154.        
    RHS       R_284_8   155.           R_284_9   146.        
    RHS       R_284_10  136.           R_284_11  147.        
    RHS       R_284_12  170.           R_284_13  128.        
    RHS       R_284_14  155.           R_284_15  160.        
    RHS       R_284_16  170.           R_284_17  168.        
    RHS       R_284_18  157.           R_284_19  136.        
    RHS       R_284_20  147.           R_284_21  149.        
    RHS       R_284_22  161.           R_284_23  165.        
    RHS       R_284_24  134.           R_284_25  137.        
    RHS       R_284_26  161.           R_284_27  153.        
    RHS       R_284_28  166.           R_284_29  151.        
    RHS       R_284_30  130.           R_284_31  154.        
BOUNDS
 UI BOUND     x_0       10.         
 UI BOUND     x_1       10.         
 UI BOUND     x_2       10.         
 UI BOUND     x_3       10.         
 UI BOUND     x_4       10.         
 UI BOUND     x_5       10.         
 UI BOUND     x_6       10.         
 UI BOUND     x_7       10.         
 UI BOUND     x_8       10.         
 UI BOUND     x_9       10.         
 UI BOUND     x_10      10.         
 UI BOUND     x_11      10.         
 UI BOUND     x_12      10.         
 UI BOUND     x_13      10.         
 UI BOUND     x_14      10.         
 UI BOUND     x_15      10.         
 UI BOUND     x_16      10.         
 UI BOUND     x_17      10.         
 UI BOUND     x_18      10.         
 UI BOUND     x_19      10.         
 UI BOUND     x_20      10.         
 UI BOUND     x_21      10.         
 UI BOUND     x_22      10.         
 UI BOUND     x_23      10.         
 UI BOUND     x_24      10.         
 UI BOUND     x_25      10.         
 UI BOUND     x_26      10.         
 UI BOUND     x_27      10.         
 UI BOUND     x_28      10.         
 UI BOUND     x_29      10.         
 UI BOUND     x_30      10.         
 UI BOUND     x_31      10.         
ENDATA
